p cnf 23 68
-5 0
-7 0
-9 0
-11 0
-13 0
-15 0
17 0
19 0
21 0
-5 0
-7 0
-9 0
-11 0
-13 0
-15 0
17 0
19 0
21 0
-23 0
1 2 0
-2 -1 0
1 2 0
-2 -1 0
3 4 0
-4 -3 0
3 4 0
-4 -3 0
5 6 0
-6 -5 0
5 6 0
-6 -5 0
7 8 0
-8 -7 0
7 8 0
-8 -7 0
9 10 0
-10 -9 0
9 10 0
-10 -9 0
11 12 0
-12 -11 0
11 12 0
-12 -11 0
13 14 0
-14 -13 0
13 14 0
-14 -13 0
15 16 0
-16 -15 0
15 16 0
-16 -15 0
17 18 0
-18 -17 0
17 18 0
-18 -17 0
19 20 0
-20 -19 0
19 20 0
-20 -19 0
21 22 0
-22 -21 0
21 22 0
-22 -21 0
-3 -1 0
-1 1 0
-3 3 0
-1 1 0
-3 3 0
